p cnf 8 27
6 0
2 0
-7 2 -3 7 0
8 -7 -2 1 0
-5 4 -3 6 0
-6 -4 0
-7 -6 7 0
-8 8 -5 0
-3 4 5 0
-3 0
4 -3 0
-5 -2 0
7 -1 6 0
2 0
1 2 -5 0
-5 -1 0
-8 1 4 0
-6 6 0
-6 3 -4 -1 0
-1 0
8 -4 0
-3 5 -2 6 0
8 -4 6 0
-7 4 5 0
3 -4 0
3 -4 -3 7 0
-8 2 0
